<?xml version="1.0" encoding="UTF-8"?>

<Solution>
  <SchedulingPeriodID>TOY2</SchedulingPeriodID>
  <Competitor>ME</Competitor>
  <SoftConstraintsPenalty>83</SoftConstraintsPenalty>
  <Assignment>
    <Date>2010-01-01</Date>
    <Employee>5</Employee>
    <ShiftType>D</ShiftType>
  </Assignment>
  <Assignment>
    <Date>2010-01-01</Date>
    <Employee>1</Employee>
    <ShiftType>E</ShiftType>
  </Assignment>
  <Assignment>
    <Date>2010-01-01</Date>
    <Employee>6</Employee>
    <ShiftType>E</ShiftType>
  </Assignment>
  <Assignment>
    <Date>2010-01-01</Date>
    <Employee>5</Employee>
    <ShiftType>E</ShiftType>
  </Assignment>
  <Assignment>
    <Date>2010-01-01</Date>
    <Employee>4</Employee>
    <ShiftType>L</ShiftType>
  </Assignment>
  <Assignment>
    <Date>2010-01-01</Date>
    <Employee>0</Employee>
    <ShiftType>L</ShiftType>
  </Assignment>
  <Assignment>
    <Date>2010-01-01</Date>
    <Employee>7</Employee>
    <ShiftType>L</ShiftType>
  </Assignment>
  <Assignment>
    <Date>2010-01-02</Date>
    <Employee>10</Employee>
    <ShiftType>D</ShiftType>
  </Assignment>
  <Assignment>
    <Date>2010-01-02</Date>
    <Employee>0</Employee>
    <ShiftType>E</ShiftType>
  </Assignment>
  <Assignment>
    <Date>2010-01-02</Date>
    <Employee>7</Employee>
    <ShiftType>E</ShiftType>
  </Assignment>
  <Assignment>
    <Date>2010-01-02</Date>
    <Employee>6</Employee>
    <ShiftType>L</ShiftType>
  </Assignment>
  <Assignment>
    <Date>2010-01-02</Date>
    <Employee>5</Employee>
    <ShiftType>L</ShiftType>
  </Assignment>
  <Assignment>
    <Date>2010-01-03</Date>
    <Employee>10</Employee>
    <ShiftType>D</ShiftType>
  </Assignment>
  <Assignment>
    <Date>2010-01-03</Date>
    <Employee>0</Employee>
    <ShiftType>E</ShiftType>
  </Assignment>
  <Assignment>
    <Date>2010-01-03</Date>
    <Employee>7</Employee>
    <ShiftType>E</ShiftType>
  </Assignment>
  <Assignment>
    <Date>2010-01-03</Date>
    <Employee>6</Employee>
    <ShiftType>L</ShiftType>
  </Assignment>
  <Assignment>
    <Date>2010-01-04</Date>
    <Employee>7</Employee>
    <ShiftType>D</ShiftType>
  </Assignment>
  <Assignment>
    <Date>2010-01-03</Date>
    <Employee>5</Employee>
    <ShiftType>L</ShiftType>
  </Assignment>
  <Assignment>
    <Date>2010-01-04</Date>
    <Employee>11</Employee>
    <ShiftType>E</ShiftType>
  </Assignment>
  <Assignment>
    <Date>2010-01-04</Date>
    <Employee>12</Employee>
    <ShiftType>E</ShiftType>
  </Assignment>
  <Assignment>
    <Date>2010-01-04</Date>
    <Employee>3</Employee>
    <ShiftType>L</ShiftType>
  </Assignment>
  <Assignment>
    <Date>2010-01-04</Date>
    <Employee>2</Employee>
    <ShiftType>E</ShiftType>
  </Assignment>
  <Assignment>
    <Date>2010-01-04</Date>
    <Employee>10</Employee>
    <ShiftType>L</ShiftType>
  </Assignment>
  <Assignment>
    <Date>2010-01-04</Date>
    <Employee>0</Employee>
    <ShiftType>L</ShiftType>
  </Assignment>
  <Assignment>
    <Date>2010-01-05</Date>
    <Employee>4</Employee>
    <ShiftType>E</ShiftType>
  </Assignment>
  <Assignment>
    <Date>2010-01-05</Date>
    <Employee>9</Employee>
    <ShiftType>D</ShiftType>
  </Assignment>
  <Assignment>
    <Date>2010-01-05</Date>
    <Employee>8</Employee>
    <ShiftType>E</ShiftType>
  </Assignment>
  <Assignment>
    <Date>2010-01-05</Date>
    <Employee>11</Employee>
    <ShiftType>E</ShiftType>
  </Assignment>
  <Assignment>
    <Date>2010-01-05</Date>
    <Employee>12</Employee>
    <ShiftType>L</ShiftType>
  </Assignment>
  <Assignment>
    <Date>2010-01-05</Date>
    <Employee>3</Employee>
    <ShiftType>L</ShiftType>
  </Assignment>
  <Assignment>
    <Date>2010-01-06</Date>
    <Employee>1</Employee>
    <ShiftType>D</ShiftType>
  </Assignment>
  <Assignment>
    <Date>2010-01-05</Date>
    <Employee>2</Employee>
    <ShiftType>L</ShiftType>
  </Assignment>
  <Assignment>
    <Date>2010-01-06</Date>
    <Employee>9</Employee>
    <ShiftType>E</ShiftType>
  </Assignment>
  <Assignment>
    <Date>2010-01-06</Date>
    <Employee>8</Employee>
    <ShiftType>L</ShiftType>
  </Assignment>
  <Assignment>
    <Date>2010-01-06</Date>
    <Employee>14</Employee>
    <ShiftType>E</ShiftType>
  </Assignment>
  <Assignment>
    <Date>2010-01-06</Date>
    <Employee>18</Employee>
    <ShiftType>E</ShiftType>
  </Assignment>
  <Assignment>
    <Date>2010-01-07</Date>
    <Employee>3</Employee>
    <ShiftType>D</ShiftType>
  </Assignment>
  <Assignment>
    <Date>2010-01-07</Date>
    <Employee>6</Employee>
    <ShiftType>E</ShiftType>
  </Assignment>
  <Assignment>
    <Date>2010-01-06</Date>
    <Employee>16</Employee>
    <ShiftType>L</ShiftType>
  </Assignment>
  <Assignment>
    <Date>2010-01-06</Date>
    <Employee>4</Employee>
    <ShiftType>L</ShiftType>
  </Assignment>
  <Assignment>
    <Date>2010-01-07</Date>
    <Employee>18</Employee>
    <ShiftType>L</ShiftType>
  </Assignment>
  <Assignment>
    <Date>2010-01-07</Date>
    <Employee>14</Employee>
    <ShiftType>L</ShiftType>
  </Assignment>
  <Assignment>
    <Date>2010-01-07</Date>
    <Employee>13</Employee>
    <ShiftType>E</ShiftType>
  </Assignment>
  <Assignment>
    <Date>2010-01-07</Date>
    <Employee>1</Employee>
    <ShiftType>E</ShiftType>
  </Assignment>
  <Assignment>
    <Date>2010-01-08</Date>
    <Employee>14</Employee>
    <ShiftType>E</ShiftType>
  </Assignment>
  <Assignment>
    <Date>2010-01-08</Date>
    <Employee>5</Employee>
    <ShiftType>E</ShiftType>
  </Assignment>
  <Assignment>
    <Date>2010-01-07</Date>
    <Employee>16</Employee>
    <ShiftType>L</ShiftType>
  </Assignment>
  <Assignment>
    <Date>2010-01-08</Date>
    <Employee>13</Employee>
    <ShiftType>D</ShiftType>
  </Assignment>
  <Assignment>
    <Date>2010-01-08</Date>
    <Employee>3</Employee>
    <ShiftType>L</ShiftType>
  </Assignment>
  <Assignment>
    <Date>2010-01-08</Date>
    <Employee>8</Employee>
    <ShiftType>L</ShiftType>
  </Assignment>
  <Assignment>
    <Date>2010-01-08</Date>
    <Employee>17</Employee>
    <ShiftType>L</ShiftType>
  </Assignment>
  <Assignment>
    <Date>2010-01-08</Date>
    <Employee>6</Employee>
    <ShiftType>E</ShiftType>
  </Assignment>
  <Assignment>
    <Date>2010-01-09</Date>
    <Employee>19</Employee>
    <ShiftType>L</ShiftType>
  </Assignment>
  <Assignment>
    <Date>2010-01-09</Date>
    <Employee>9</Employee>
    <ShiftType>E</ShiftType>
  </Assignment>
  <Assignment>
    <Date>2010-01-09</Date>
    <Employee>8</Employee>
    <ShiftType>E</ShiftType>
  </Assignment>
  <Assignment>
    <Date>2010-01-09</Date>
    <Employee>4</Employee>
    <ShiftType>D</ShiftType>
  </Assignment>
  <Assignment>
    <Date>2010-01-10</Date>
    <Employee>9</Employee>
    <ShiftType>E</ShiftType>
  </Assignment>
  <Assignment>
    <Date>2010-01-10</Date>
    <Employee>8</Employee>
    <ShiftType>E</ShiftType>
  </Assignment>
  <Assignment>
    <Date>2010-01-10</Date>
    <Employee>4</Employee>
    <ShiftType>D</ShiftType>
  </Assignment>
  <Assignment>
    <Date>2010-01-09</Date>
    <Employee>17</Employee>
    <ShiftType>L</ShiftType>
  </Assignment>
  <Assignment>
    <Date>2010-01-11</Date>
    <Employee>1</Employee>
    <ShiftType>E</ShiftType>
  </Assignment>
  <Assignment>
    <Date>2010-01-11</Date>
    <Employee>2</Employee>
    <ShiftType>D</ShiftType>
  </Assignment>
  <Assignment>
    <Date>2010-01-10</Date>
    <Employee>19</Employee>
    <ShiftType>L</ShiftType>
  </Assignment>
  <Assignment>
    <Date>2010-01-10</Date>
    <Employee>17</Employee>
    <ShiftType>L</ShiftType>
  </Assignment>
  <Assignment>
    <Date>2010-01-11</Date>
    <Employee>0</Employee>
    <ShiftType>L</ShiftType>
  </Assignment>
  <Assignment>
    <Date>2010-01-12</Date>
    <Employee>11</Employee>
    <ShiftType>D</ShiftType>
  </Assignment>
  <Assignment>
    <Date>2010-01-12</Date>
    <Employee>2</Employee>
    <ShiftType>E</ShiftType>
  </Assignment>
  <Assignment>
    <Date>2010-01-12</Date>
    <Employee>1</Employee>
    <ShiftType>E</ShiftType>
  </Assignment>
  <Assignment>
    <Date>2010-01-11</Date>
    <Employee>10</Employee>
    <ShiftType>E</ShiftType>
  </Assignment>
  <Assignment>
    <Date>2010-01-11</Date>
    <Employee>6</Employee>
    <ShiftType>E</ShiftType>
  </Assignment>
  <Assignment>
    <Date>2010-01-11</Date>
    <Employee>7</Employee>
    <ShiftType>L</ShiftType>
  </Assignment>
  <Assignment>
    <Date>2010-01-11</Date>
    <Employee>11</Employee>
    <ShiftType>L</ShiftType>
  </Assignment>
  <Assignment>
    <Date>2010-01-13</Date>
    <Employee>3</Employee>
    <ShiftType>D</ShiftType>
  </Assignment>
  <Assignment>
    <Date>2010-01-13</Date>
    <Employee>15</Employee>
    <ShiftType>E</ShiftType>
  </Assignment>
  <Assignment>
    <Date>2010-01-13</Date>
    <Employee>16</Employee>
    <ShiftType>E</ShiftType>
  </Assignment>
  <Assignment>
    <Date>2010-01-13</Date>
    <Employee>12</Employee>
    <ShiftType>E</ShiftType>
  </Assignment>
  <Assignment>
    <Date>2010-01-12</Date>
    <Employee>10</Employee>
    <ShiftType>E</ShiftType>
  </Assignment>
  <Assignment>
    <Date>2010-01-12</Date>
    <Employee>0</Employee>
    <ShiftType>L</ShiftType>
  </Assignment>
  <Assignment>
    <Date>2010-01-12</Date>
    <Employee>7</Employee>
    <ShiftType>L</ShiftType>
  </Assignment>
  <Assignment>
    <Date>2010-01-12</Date>
    <Employee>6</Employee>
    <ShiftType>L</ShiftType>
  </Assignment>
  <Assignment>
    <Date>2010-01-14</Date>
    <Employee>16</Employee>
    <ShiftType>E</ShiftType>
  </Assignment>
  <Assignment>
    <Date>2010-01-14</Date>
    <Employee>5</Employee>
    <ShiftType>E</ShiftType>
  </Assignment>
  <Assignment>
    <Date>2010-01-14</Date>
    <Employee>17</Employee>
    <ShiftType>L</ShiftType>
  </Assignment>
  <Assignment>
    <Date>2010-01-14</Date>
    <Employee>2</Employee>
    <ShiftType>E</ShiftType>
  </Assignment>
  <Assignment>
    <Date>2010-01-13</Date>
    <Employee>2</Employee>
    <ShiftType>L</ShiftType>
  </Assignment>
  <Assignment>
    <Date>2010-01-13</Date>
    <Employee>17</Employee>
    <ShiftType>L</ShiftType>
  </Assignment>
  <Assignment>
    <Date>2010-01-14</Date>
    <Employee>15</Employee>
    <ShiftType>D</ShiftType>
  </Assignment>
  <Assignment>
    <Date>2010-01-13</Date>
    <Employee>1</Employee>
    <ShiftType>L</ShiftType>
  </Assignment>
  <Assignment>
    <Date>2010-01-15</Date>
    <Employee>17</Employee>
    <ShiftType>E</ShiftType>
  </Assignment>
  <Assignment>
    <Date>2010-01-15</Date>
    <Employee>18</Employee>
    <ShiftType>E</ShiftType>
  </Assignment>
  <Assignment>
    <Date>2010-01-15</Date>
    <Employee>15</Employee>
    <ShiftType>L</ShiftType>
  </Assignment>
  <Assignment>
    <Date>2010-01-15</Date>
    <Employee>13</Employee>
    <ShiftType>L</ShiftType>
  </Assignment>
  <Assignment>
    <Date>2010-01-14</Date>
    <Employee>12</Employee>
    <ShiftType>L</ShiftType>
  </Assignment>
  <Assignment>
    <Date>2010-01-14</Date>
    <Employee>3</Employee>
    <ShiftType>L</ShiftType>
  </Assignment>
  <Assignment>
    <Date>2010-01-15</Date>
    <Employee>14</Employee>
    <ShiftType>E</ShiftType>
  </Assignment>
  <Assignment>
    <Date>2010-01-15</Date>
    <Employee>2</Employee>
    <ShiftType>D</ShiftType>
  </Assignment>
  <Assignment>
    <Date>2010-01-16</Date>
    <Employee>9</Employee>
    <ShiftType>D</ShiftType>
  </Assignment>
  <Assignment>
    <Date>2010-01-16</Date>
    <Employee>8</Employee>
    <ShiftType>E</ShiftType>
  </Assignment>
  <Assignment>
    <Date>2010-01-17</Date>
    <Employee>13</Employee>
    <ShiftType>L</ShiftType>
  </Assignment>
  <Assignment>
    <Date>2010-01-17</Date>
    <Employee>14</Employee>
    <ShiftType>L</ShiftType>
  </Assignment>
  <Assignment>
    <Date>2010-01-17</Date>
    <Employee>9</Employee>
    <ShiftType>E</ShiftType>
  </Assignment>
  <Assignment>
    <Date>2010-01-17</Date>
    <Employee>8</Employee>
    <ShiftType>E</ShiftType>
  </Assignment>
  <Assignment>
    <Date>2010-01-15</Date>
    <Employee>5</Employee>
    <ShiftType>L</ShiftType>
  </Assignment>
  <Assignment>
    <Date>2010-01-17</Date>
    <Employee>4</Employee>
    <ShiftType>D</ShiftType>
  </Assignment>
  <Assignment>
    <Date>2010-01-19</Date>
    <Employee>3</Employee>
    <ShiftType>E</ShiftType>
  </Assignment>
  <Assignment>
    <Date>2010-01-19</Date>
    <Employee>7</Employee>
    <ShiftType>L</ShiftType>
  </Assignment>
  <Assignment>
    <Date>2010-01-19</Date>
    <Employee>2</Employee>
    <ShiftType>E</ShiftType>
  </Assignment>
  <Assignment>
    <Date>2010-01-19</Date>
    <Employee>12</Employee>
    <ShiftType>E</ShiftType>
  </Assignment>
  <Assignment>
    <Date>2010-01-16</Date>
    <Employee>13</Employee>
    <ShiftType>L</ShiftType>
  </Assignment>
  <Assignment>
    <Date>2010-01-19</Date>
    <Employee>19</Employee>
    <ShiftType>D</ShiftType>
  </Assignment>
  <Assignment>
    <Date>2010-01-16</Date>
    <Employee>16</Employee>
    <ShiftType>E</ShiftType>
  </Assignment>
  <Assignment>
    <Date>2010-01-16</Date>
    <Employee>14</Employee>
    <ShiftType>L</ShiftType>
  </Assignment>
  <Assignment>
    <Date>2010-01-18</Date>
    <Employee>9</Employee>
    <ShiftType>L</ShiftType>
  </Assignment>
  <Assignment>
    <Date>2010-01-18</Date>
    <Employee>8</Employee>
    <ShiftType>L</ShiftType>
  </Assignment>
  <Assignment>
    <Date>2010-01-18</Date>
    <Employee>6</Employee>
    <ShiftType>E</ShiftType>
  </Assignment>
  <Assignment>
    <Date>2010-01-18</Date>
    <Employee>1</Employee>
    <ShiftType>E</ShiftType>
  </Assignment>
  <Assignment>
    <Date>2010-01-18</Date>
    <Employee>4</Employee>
    <ShiftType>E</ShiftType>
  </Assignment>
  <Assignment>
    <Date>2010-01-18</Date>
    <Employee>7</Employee>
    <ShiftType>D</ShiftType>
  </Assignment>
  <Assignment>
    <Date>2010-01-19</Date>
    <Employee>10</Employee>
    <ShiftType>L</ShiftType>
  </Assignment>
  <Assignment>
    <Date>2010-01-19</Date>
    <Employee>0</Employee>
    <ShiftType>L</ShiftType>
  </Assignment>
  <Assignment>
    <Date>2010-01-21</Date>
    <Employee>13</Employee>
    <ShiftType>L</ShiftType>
  </Assignment>
  <Assignment>
    <Date>2010-01-21</Date>
    <Employee>14</Employee>
    <ShiftType>L</ShiftType>
  </Assignment>
  <Assignment>
    <Date>2010-01-21</Date>
    <Employee>11</Employee>
    <ShiftType>L</ShiftType>
  </Assignment>
  <Assignment>
    <Date>2010-01-21</Date>
    <Employee>18</Employee>
    <ShiftType>E</ShiftType>
  </Assignment>
  <Assignment>
    <Date>2010-01-21</Date>
    <Employee>15</Employee>
    <ShiftType>E</ShiftType>
  </Assignment>
  <Assignment>
    <Date>2010-01-21</Date>
    <Employee>16</Employee>
    <ShiftType>E</ShiftType>
  </Assignment>
  <Assignment>
    <Date>2010-01-21</Date>
    <Employee>17</Employee>
    <ShiftType>D</ShiftType>
  </Assignment>
  <Assignment>
    <Date>2010-01-18</Date>
    <Employee>19</Employee>
    <ShiftType>L</ShiftType>
  </Assignment>
  <Assignment>
    <Date>2010-01-23</Date>
    <Employee>5</Employee>
    <ShiftType>E</ShiftType>
  </Assignment>
  <Assignment>
    <Date>2010-01-23</Date>
    <Employee>4</Employee>
    <ShiftType>E</ShiftType>
  </Assignment>
  <Assignment>
    <Date>2010-01-23</Date>
    <Employee>9</Employee>
    <ShiftType>L</ShiftType>
  </Assignment>
  <Assignment>
    <Date>2010-01-23</Date>
    <Employee>18</Employee>
    <ShiftType>L</ShiftType>
  </Assignment>
  <Assignment>
    <Date>2010-01-22</Date>
    <Employee>17</Employee>
    <ShiftType>E</ShiftType>
  </Assignment>
  <Assignment>
    <Date>2010-01-22</Date>
    <Employee>19</Employee>
    <ShiftType>D</ShiftType>
  </Assignment>
  <Assignment>
    <Date>2010-01-22</Date>
    <Employee>18</Employee>
    <ShiftType>E</ShiftType>
  </Assignment>
  <Assignment>
    <Date>2010-01-22</Date>
    <Employee>15</Employee>
    <ShiftType>E</ShiftType>
  </Assignment>
  <Assignment>
    <Date>2010-01-20</Date>
    <Employee>3</Employee>
    <ShiftType>E</ShiftType>
  </Assignment>
  <Assignment>
    <Date>2010-01-20</Date>
    <Employee>12</Employee>
    <ShiftType>D</ShiftType>
  </Assignment>
  <Assignment>
    <Date>2010-01-20</Date>
    <Employee>2</Employee>
    <ShiftType>E</ShiftType>
  </Assignment>
  <Assignment>
    <Date>2010-01-20</Date>
    <Employee>1</Employee>
    <ShiftType>E</ShiftType>
  </Assignment>
  <Assignment>
    <Date>2010-01-20</Date>
    <Employee>10</Employee>
    <ShiftType>L</ShiftType>
  </Assignment>
  <Assignment>
    <Date>2010-01-20</Date>
    <Employee>0</Employee>
    <ShiftType>L</ShiftType>
  </Assignment>
  <Assignment>
    <Date>2010-01-23</Date>
    <Employee>6</Employee>
    <ShiftType>D</ShiftType>
  </Assignment>
  <Assignment>
    <Date>2010-01-20</Date>
    <Employee>7</Employee>
    <ShiftType>L</ShiftType>
  </Assignment>
  <Assignment>
    <Date>2010-01-25</Date>
    <Employee>0</Employee>
    <ShiftType>L</ShiftType>
  </Assignment>
  <Assignment>
    <Date>2010-01-25</Date>
    <Employee>1</Employee>
    <ShiftType>L</ShiftType>
  </Assignment>
  <Assignment>
    <Date>2010-01-24</Date>
    <Employee>7</Employee>
    <ShiftType>D</ShiftType>
  </Assignment>
  <Assignment>
    <Date>2010-01-24</Date>
    <Employee>6</Employee>
    <ShiftType>E</ShiftType>
  </Assignment>
  <Assignment>
    <Date>2010-01-24</Date>
    <Employee>5</Employee>
    <ShiftType>E</ShiftType>
  </Assignment>
  <Assignment>
    <Date>2010-01-24</Date>
    <Employee>4</Employee>
    <ShiftType>L</ShiftType>
  </Assignment>
  <Assignment>
    <Date>2010-01-24</Date>
    <Employee>9</Employee>
    <ShiftType>L</ShiftType>
  </Assignment>
  <Assignment>
    <Date>2010-01-27</Date>
    <Employee>8</Employee>
    <ShiftType>D</ShiftType>
  </Assignment>
  <Assignment>
    <Date>2010-01-22</Date>
    <Employee>16</Employee>
    <ShiftType>L</ShiftType>
  </Assignment>
  <Assignment>
    <Date>2010-01-22</Date>
    <Employee>13</Employee>
    <ShiftType>L</ShiftType>
  </Assignment>
  <Assignment>
    <Date>2010-01-22</Date>
    <Employee>14</Employee>
    <ShiftType>L</ShiftType>
  </Assignment>
  <Assignment>
    <Date>2010-01-25</Date>
    <Employee>11</Employee>
    <ShiftType>D</ShiftType>
  </Assignment>
  <Assignment>
    <Date>2010-01-25</Date>
    <Employee>12</Employee>
    <ShiftType>E</ShiftType>
  </Assignment>
  <Assignment>
    <Date>2010-01-25</Date>
    <Employee>3</Employee>
    <ShiftType>E</ShiftType>
  </Assignment>
  <Assignment>
    <Date>2010-01-25</Date>
    <Employee>2</Employee>
    <ShiftType>E</ShiftType>
  </Assignment>
  <Assignment>
    <Date>2010-01-25</Date>
    <Employee>10</Employee>
    <ShiftType>L</ShiftType>
  </Assignment>
  <Assignment>
    <Date>2010-01-26</Date>
    <Employee>2</Employee>
    <ShiftType>L</ShiftType>
  </Assignment>
  <Assignment>
    <Date>2010-01-26</Date>
    <Employee>1</Employee>
    <ShiftType>L</ShiftType>
  </Assignment>
  <Assignment>
    <Date>2010-01-26</Date>
    <Employee>11</Employee>
    <ShiftType>E</ShiftType>
  </Assignment>
  <Assignment>
    <Date>2010-01-26</Date>
    <Employee>12</Employee>
    <ShiftType>E</ShiftType>
  </Assignment>
  <Assignment>
    <Date>2010-01-28</Date>
    <Employee>7</Employee>
    <ShiftType>E</ShiftType>
  </Assignment>
  <Assignment>
    <Date>2010-01-28</Date>
    <Employee>6</Employee>
    <ShiftType>E</ShiftType>
  </Assignment>
  <Assignment>
    <Date>2010-01-28</Date>
    <Employee>0</Employee>
    <ShiftType>D</ShiftType>
  </Assignment>
  <Assignment>
    <Date>2010-01-26</Date>
    <Employee>10</Employee>
    <ShiftType>L</ShiftType>
  </Assignment>
  <Assignment>
    <Date>2010-01-27</Date>
    <Employee>15</Employee>
    <ShiftType>L</ShiftType>
  </Assignment>
  <Assignment>
    <Date>2010-01-27</Date>
    <Employee>19</Employee>
    <ShiftType>E</ShiftType>
  </Assignment>
  <Assignment>
    <Date>2010-01-27</Date>
    <Employee>17</Employee>
    <ShiftType>E</ShiftType>
  </Assignment>
  <Assignment>
    <Date>2010-01-27</Date>
    <Employee>18</Employee>
    <ShiftType>E</ShiftType>
  </Assignment>
  <Assignment>
    <Date>2010-01-26</Date>
    <Employee>3</Employee>
    <ShiftType>E</ShiftType>
  </Assignment>
  <Assignment>
    <Date>2010-01-26</Date>
    <Employee>14</Employee>
    <ShiftType>D</ShiftType>
  </Assignment>
  <Assignment>
    <Date>2010-01-27</Date>
    <Employee>16</Employee>
    <ShiftType>L</ShiftType>
  </Assignment>
  <Assignment>
    <Date>2010-01-27</Date>
    <Employee>13</Employee>
    <ShiftType>L</ShiftType>
  </Assignment>
  <Assignment>
    <Date>2010-01-28</Date>
    <Employee>8</Employee>
    <ShiftType>L</ShiftType>
  </Assignment>
  <Assignment>
    <Date>2010-01-28</Date>
    <Employee>4</Employee>
    <ShiftType>L</ShiftType>
  </Assignment>
  <Assignment>
    <Date>2010-01-28</Date>
    <Employee>5</Employee>
    <ShiftType>E</ShiftType>
  </Assignment>
  <Assignment>
    <Date>2010-01-28</Date>
    <Employee>9</Employee>
    <ShiftType>L</ShiftType>
  </Assignment>
</Solution>
